Maximize

y_0 + y_1 + y_2 + y_3 + y_4 + y_5 + y_6 + y_7 + y_8 + y_9


Subject To

a0: x_0_0 + x_0_1 + x_0_2 + x_0_3 + x_0_4 + x_0_5 + x_0_6 + x_0_7 + x_0_8 + x_0_9 <= 1
a1: x_1_0 + x_1_1 + x_1_2 + x_1_3 + x_1_4 + x_1_5 + x_1_6 + x_1_7 + x_1_8 + x_1_9 <= 1
a2: x_2_0 + x_2_1 + x_2_2 + x_2_3 + x_2_4 + x_2_5 + x_2_6 + x_2_7 + x_2_8 + x_2_9 <= 1
a3: x_3_0 + x_3_1 + x_3_2 + x_3_3 + x_3_4 + x_3_5 + x_3_6 + x_3_7 + x_3_8 + x_3_9 <= 1
a4: x_4_0 + x_4_1 + x_4_2 + x_4_3 + x_4_4 + x_4_5 + x_4_6 + x_4_7 + x_4_8 + x_4_9 <= 1
a5: x_5_0 + x_5_1 + x_5_2 + x_5_3 + x_5_4 + x_5_5 + x_5_6 + x_5_7 + x_5_8 + x_5_9 <= 1
a6: x_6_0 + x_6_1 + x_6_2 + x_6_3 + x_6_4 + x_6_5 + x_6_6 + x_6_7 + x_6_8 + x_6_9 <= 1
a7: x_7_0 + x_7_1 + x_7_2 + x_7_3 + x_7_4 + x_7_5 + x_7_6 + x_7_7 + x_7_8 + x_7_9 <= 1
a8: x_8_0 + x_8_1 + x_8_2 + x_8_3 + x_8_4 + x_8_5 + x_8_6 + x_8_7 + x_8_8 + x_8_9 <= 1
a9: x_9_0 + x_9_1 + x_9_2 + x_9_3 + x_9_4 + x_9_5 + x_9_6 + x_9_7 + x_9_8 + x_9_9 <= 1
a10: x_10_0 + x_10_1 + x_10_2 + x_10_3 + x_10_4 + x_10_5 + x_10_6 + x_10_7 + x_10_8 + x_10_9 <= 1
a11: x_11_0 + x_11_1 + x_11_2 + x_11_3 + x_11_4 + x_11_5 + x_11_6 + x_11_7 + x_11_8 + x_11_9 <= 1
a12: x_12_0 + x_12_1 + x_12_2 + x_12_3 + x_12_4 + x_12_5 + x_12_6 + x_12_7 + x_12_8 + x_12_9 <= 1
a13: x_13_0 + x_13_1 + x_13_2 + x_13_3 + x_13_4 + x_13_5 + x_13_6 + x_13_7 + x_13_8 + x_13_9 <= 1
a14: x_14_0 + x_14_1 + x_14_2 + x_14_3 + x_14_4 + x_14_5 + x_14_6 + x_14_7 + x_14_8 + x_14_9 <= 1
a15: x_15_0 + x_15_1 + x_15_2 + x_15_3 + x_15_4 + x_15_5 + x_15_6 + x_15_7 + x_15_8 + x_15_9 <= 1
a16: x_16_0 + x_16_1 + x_16_2 + x_16_3 + x_16_4 + x_16_5 + x_16_6 + x_16_7 + x_16_8 + x_16_9 <= 1
a17: x_17_0 + x_17_1 + x_17_2 + x_17_3 + x_17_4 + x_17_5 + x_17_6 + x_17_7 + x_17_8 + x_17_9 <= 1
a18: x_18_0 + x_18_1 + x_18_2 + x_18_3 + x_18_4 + x_18_5 + x_18_6 + x_18_7 + x_18_8 + x_18_9 <= 1
a19: x_19_0 + x_19_1 + x_19_2 + x_19_3 + x_19_4 + x_19_5 + x_19_6 + x_19_7 + x_19_8 + x_19_9 <= 1
a20: x_20_0 + x_20_1 + x_20_2 + x_20_3 + x_20_4 + x_20_5 + x_20_6 + x_20_7 + x_20_8 + x_20_9 <= 1
a21: x_21_0 + x_21_1 + x_21_2 + x_21_3 + x_21_4 + x_21_5 + x_21_6 + x_21_7 + x_21_8 + x_21_9 <= 1
a22: x_22_0 + x_22_1 + x_22_2 + x_22_3 + x_22_4 + x_22_5 + x_22_6 + x_22_7 + x_22_8 + x_22_9 <= 1
a23: x_23_0 + x_23_1 + x_23_2 + x_23_3 + x_23_4 + x_23_5 + x_23_6 + x_23_7 + x_23_8 + x_23_9 <= 1
a24: x_24_0 + x_24_1 + x_24_2 + x_24_3 + x_24_4 + x_24_5 + x_24_6 + x_24_7 + x_24_8 + x_24_9 <= 1
a25: x_25_0 + x_25_1 + x_25_2 + x_25_3 + x_25_4 + x_25_5 + x_25_6 + x_25_7 + x_25_8 + x_25_9 <= 1
a26: x_26_0 + x_26_1 + x_26_2 + x_26_3 + x_26_4 + x_26_5 + x_26_6 + x_26_7 + x_26_8 + x_26_9 <= 1
a27: x_27_0 + x_27_1 + x_27_2 + x_27_3 + x_27_4 + x_27_5 + x_27_6 + x_27_7 + x_27_8 + x_27_9 <= 1
a28: x_28_0 + x_28_1 + x_28_2 + x_28_3 + x_28_4 + x_28_5 + x_28_6 + x_28_7 + x_28_8 + x_28_9 <= 1
a29: x_29_0 + x_29_1 + x_29_2 + x_29_3 + x_29_4 + x_29_5 + x_29_6 + x_29_7 + x_29_8 + x_29_9 <= 1
a30: x_30_0 + x_30_1 + x_30_2 + x_30_3 + x_30_4 + x_30_5 + x_30_6 + x_30_7 + x_30_8 + x_30_9 <= 1
a31: x_31_0 + x_31_1 + x_31_2 + x_31_3 + x_31_4 + x_31_5 + x_31_6 + x_31_7 + x_31_8 + x_31_9 <= 1
a32: x_32_0 + x_32_1 + x_32_2 + x_32_3 + x_32_4 + x_32_5 + x_32_6 + x_32_7 + x_32_8 + x_32_9 <= 1
a33: x_33_0 + x_33_1 + x_33_2 + x_33_3 + x_33_4 + x_33_5 + x_33_6 + x_33_7 + x_33_8 + x_33_9 <= 1
a34: x_34_0 + x_34_1 + x_34_2 + x_34_3 + x_34_4 + x_34_5 + x_34_6 + x_34_7 + x_34_8 + x_34_9 <= 1
a35: x_35_0 + x_35_1 + x_35_2 + x_35_3 + x_35_4 + x_35_5 + x_35_6 + x_35_7 + x_35_8 + x_35_9 <= 1
a36: x_36_0 + x_36_1 + x_36_2 + x_36_3 + x_36_4 + x_36_5 + x_36_6 + x_36_7 + x_36_8 + x_36_9 <= 1
a37: x_37_0 + x_37_1 + x_37_2 + x_37_3 + x_37_4 + x_37_5 + x_37_6 + x_37_7 + x_37_8 + x_37_9 <= 1
a38: x_38_0 + x_38_1 + x_38_2 + x_38_3 + x_38_4 + x_38_5 + x_38_6 + x_38_7 + x_38_8 + x_38_9 <= 1
a39: x_39_0 + x_39_1 + x_39_2 + x_39_3 + x_39_4 + x_39_5 + x_39_6 + x_39_7 + x_39_8 + x_39_9 <= 1
a40: x_40_0 + x_40_1 + x_40_2 + x_40_3 + x_40_4 + x_40_5 + x_40_6 + x_40_7 + x_40_8 + x_40_9 <= 1
a41: x_41_0 + x_41_1 + x_41_2 + x_41_3 + x_41_4 + x_41_5 + x_41_6 + x_41_7 + x_41_8 + x_41_9 <= 1
a42: x_42_0 + x_42_1 + x_42_2 + x_42_3 + x_42_4 + x_42_5 + x_42_6 + x_42_7 + x_42_8 + x_42_9 <= 1
a43: x_43_0 + x_43_1 + x_43_2 + x_43_3 + x_43_4 + x_43_5 + x_43_6 + x_43_7 + x_43_8 + x_43_9 <= 1
a44: x_44_0 + x_44_1 + x_44_2 + x_44_3 + x_44_4 + x_44_5 + x_44_6 + x_44_7 + x_44_8 + x_44_9 <= 1
a45: x_45_0 + x_45_1 + x_45_2 + x_45_3 + x_45_4 + x_45_5 + x_45_6 + x_45_7 + x_45_8 + x_45_9 <= 1
a46: x_46_0 + x_46_1 + x_46_2 + x_46_3 + x_46_4 + x_46_5 + x_46_6 + x_46_7 + x_46_8 + x_46_9 <= 1
a47: x_47_0 + x_47_1 + x_47_2 + x_47_3 + x_47_4 + x_47_5 + x_47_6 + x_47_7 + x_47_8 + x_47_9 <= 1
a48: x_48_0 + x_48_1 + x_48_2 + x_48_3 + x_48_4 + x_48_5 + x_48_6 + x_48_7 + x_48_8 + x_48_9 <= 1
a49: x_49_0 + x_49_1 + x_49_2 + x_49_3 + x_49_4 + x_49_5 + x_49_6 + x_49_7 + x_49_8 + x_49_9 <= 1
a50: x_50_0 + x_50_1 + x_50_2 + x_50_3 + x_50_4 + x_50_5 + x_50_6 + x_50_7 + x_50_8 + x_50_9 <= 1
a51: x_51_0 + x_51_1 + x_51_2 + x_51_3 + x_51_4 + x_51_5 + x_51_6 + x_51_7 + x_51_8 + x_51_9 <= 1
a52: x_52_0 + x_52_1 + x_52_2 + x_52_3 + x_52_4 + x_52_5 + x_52_6 + x_52_7 + x_52_8 + x_52_9 <= 1
a53: x_53_0 + x_53_1 + x_53_2 + x_53_3 + x_53_4 + x_53_5 + x_53_6 + x_53_7 + x_53_8 + x_53_9 <= 1
a54: x_54_0 + x_54_1 + x_54_2 + x_54_3 + x_54_4 + x_54_5 + x_54_6 + x_54_7 + x_54_8 + x_54_9 <= 1
a55: x_55_0 + x_55_1 + x_55_2 + x_55_3 + x_55_4 + x_55_5 + x_55_6 + x_55_7 + x_55_8 + x_55_9 <= 1
a56: x_56_0 + x_56_1 + x_56_2 + x_56_3 + x_56_4 + x_56_5 + x_56_6 + x_56_7 + x_56_8 + x_56_9 <= 1
a57: x_57_0 + x_57_1 + x_57_2 + x_57_3 + x_57_4 + x_57_5 + x_57_6 + x_57_7 + x_57_8 + x_57_9 <= 1
a58: x_58_0 + x_58_1 + x_58_2 + x_58_3 + x_58_4 + x_58_5 + x_58_6 + x_58_7 + x_58_8 + x_58_9 <= 1
a59: x_59_0 + x_59_1 + x_59_2 + x_59_3 + x_59_4 + x_59_5 + x_59_6 + x_59_7 + x_59_8 + x_59_9 <= 1
a60: x_60_0 + x_60_1 + x_60_2 + x_60_3 + x_60_4 + x_60_5 + x_60_6 + x_60_7 + x_60_8 + x_60_9 <= 1
a61: x_61_0 + x_61_1 + x_61_2 + x_61_3 + x_61_4 + x_61_5 + x_61_6 + x_61_7 + x_61_8 + x_61_9 <= 1
a62: x_62_0 + x_62_1 + x_62_2 + x_62_3 + x_62_4 + x_62_5 + x_62_6 + x_62_7 + x_62_8 + x_62_9 <= 1
a63: x_63_0 + x_63_1 + x_63_2 + x_63_3 + x_63_4 + x_63_5 + x_63_6 + x_63_7 + x_63_8 + x_63_9 <= 1
a64: x_64_0 + x_64_1 + x_64_2 + x_64_3 + x_64_4 + x_64_5 + x_64_6 + x_64_7 + x_64_8 + x_64_9 <= 1
a65: x_65_0 + x_65_1 + x_65_2 + x_65_3 + x_65_4 + x_65_5 + x_65_6 + x_65_7 + x_65_8 + x_65_9 <= 1
a66: x_66_0 + x_66_1 + x_66_2 + x_66_3 + x_66_4 + x_66_5 + x_66_6 + x_66_7 + x_66_8 + x_66_9 <= 1
a67: x_67_0 + x_67_1 + x_67_2 + x_67_3 + x_67_4 + x_67_5 + x_67_6 + x_67_7 + x_67_8 + x_67_9 <= 1
a68: x_68_0 + x_68_1 + x_68_2 + x_68_3 + x_68_4 + x_68_5 + x_68_6 + x_68_7 + x_68_8 + x_68_9 <= 1
a69: x_69_0 + x_69_1 + x_69_2 + x_69_3 + x_69_4 + x_69_5 + x_69_6 + x_69_7 + x_69_8 + x_69_9 <= 1
a70: x_70_0 + x_70_1 + x_70_2 + x_70_3 + x_70_4 + x_70_5 + x_70_6 + x_70_7 + x_70_8 + x_70_9 <= 1
a71: x_71_0 + x_71_1 + x_71_2 + x_71_3 + x_71_4 + x_71_5 + x_71_6 + x_71_7 + x_71_8 + x_71_9 <= 1
a72: x_72_0 + x_72_1 + x_72_2 + x_72_3 + x_72_4 + x_72_5 + x_72_6 + x_72_7 + x_72_8 + x_72_9 <= 1
a73: x_73_0 + x_73_1 + x_73_2 + x_73_3 + x_73_4 + x_73_5 + x_73_6 + x_73_7 + x_73_8 + x_73_9 <= 1
a74: x_74_0 + x_74_1 + x_74_2 + x_74_3 + x_74_4 + x_74_5 + x_74_6 + x_74_7 + x_74_8 + x_74_9 <= 1
a75: x_75_0 + x_75_1 + x_75_2 + x_75_3 + x_75_4 + x_75_5 + x_75_6 + x_75_7 + x_75_8 + x_75_9 <= 1
a76: x_76_0 + x_76_1 + x_76_2 + x_76_3 + x_76_4 + x_76_5 + x_76_6 + x_76_7 + x_76_8 + x_76_9 <= 1
a77: x_77_0 + x_77_1 + x_77_2 + x_77_3 + x_77_4 + x_77_5 + x_77_6 + x_77_7 + x_77_8 + x_77_9 <= 1
a78: x_78_0 + x_78_1 + x_78_2 + x_78_3 + x_78_4 + x_78_5 + x_78_6 + x_78_7 + x_78_8 + x_78_9 <= 1
a79: x_79_0 + x_79_1 + x_79_2 + x_79_3 + x_79_4 + x_79_5 + x_79_6 + x_79_7 + x_79_8 + x_79_9 <= 1
a80: x_80_0 + x_80_1 + x_80_2 + x_80_3 + x_80_4 + x_80_5 + x_80_6 + x_80_7 + x_80_8 + x_80_9 <= 1
a81: x_81_0 + x_81_1 + x_81_2 + x_81_3 + x_81_4 + x_81_5 + x_81_6 + x_81_7 + x_81_8 + x_81_9 <= 1
a82: x_82_0 + x_82_1 + x_82_2 + x_82_3 + x_82_4 + x_82_5 + x_82_6 + x_82_7 + x_82_8 + x_82_9 <= 1
a83: x_83_0 + x_83_1 + x_83_2 + x_83_3 + x_83_4 + x_83_5 + x_83_6 + x_83_7 + x_83_8 + x_83_9 <= 1
a84: x_84_0 + x_84_1 + x_84_2 + x_84_3 + x_84_4 + x_84_5 + x_84_6 + x_84_7 + x_84_8 + x_84_9 <= 1
a85: x_85_0 + x_85_1 + x_85_2 + x_85_3 + x_85_4 + x_85_5 + x_85_6 + x_85_7 + x_85_8 + x_85_9 <= 1
a86: x_86_0 + x_86_1 + x_86_2 + x_86_3 + x_86_4 + x_86_5 + x_86_6 + x_86_7 + x_86_8 + x_86_9 <= 1
a87: x_87_0 + x_87_1 + x_87_2 + x_87_3 + x_87_4 + x_87_5 + x_87_6 + x_87_7 + x_87_8 + x_87_9 <= 1
a88: x_88_0 + x_88_1 + x_88_2 + x_88_3 + x_88_4 + x_88_5 + x_88_6 + x_88_7 + x_88_8 + x_88_9 <= 1
a89: x_89_0 + x_89_1 + x_89_2 + x_89_3 + x_89_4 + x_89_5 + x_89_6 + x_89_7 + x_89_8 + x_89_9 <= 1
a90: x_90_0 + x_90_1 + x_90_2 + x_90_3 + x_90_4 + x_90_5 + x_90_6 + x_90_7 + x_90_8 + x_90_9 <= 1
a91: x_91_0 + x_91_1 + x_91_2 + x_91_3 + x_91_4 + x_91_5 + x_91_6 + x_91_7 + x_91_8 + x_91_9 <= 1
a92: x_92_0 + x_92_1 + x_92_2 + x_92_3 + x_92_4 + x_92_5 + x_92_6 + x_92_7 + x_92_8 + x_92_9 <= 1
a93: x_93_0 + x_93_1 + x_93_2 + x_93_3 + x_93_4 + x_93_5 + x_93_6 + x_93_7 + x_93_8 + x_93_9 <= 1
a94: x_94_0 + x_94_1 + x_94_2 + x_94_3 + x_94_4 + x_94_5 + x_94_6 + x_94_7 + x_94_8 + x_94_9 <= 1
a95: x_95_0 + x_95_1 + x_95_2 + x_95_3 + x_95_4 + x_95_5 + x_95_6 + x_95_7 + x_95_8 + x_95_9 <= 1
a96: x_96_0 + x_96_1 + x_96_2 + x_96_3 + x_96_4 + x_96_5 + x_96_6 + x_96_7 + x_96_8 + x_96_9 <= 1
a97: x_97_0 + x_97_1 + x_97_2 + x_97_3 + x_97_4 + x_97_5 + x_97_6 + x_97_7 + x_97_8 + x_97_9 <= 1
a98: x_98_0 + x_98_1 + x_98_2 + x_98_3 + x_98_4 + x_98_5 + x_98_6 + x_98_7 + x_98_8 + x_98_9 <= 1
a99: x_99_0 + x_99_1 + x_99_2 + x_99_3 + x_99_4 + x_99_5 + x_99_6 + x_99_7 + x_99_8 + x_99_9 <= 1
b0: 15 x_6_0 + 31 x_8_0 + 37 x_10_0 + 36 x_17_0 + 4 x_18_0 + 27 x_19_0 + 1 x_20_0 + 37 x_21_0 + 9 x_27_0 + 7 x_30_0 + 27 x_31_0 + 46 x_32_0 + 24 x_34_0 + 15 x_41_0 + 48 x_45_0 + 44 x_46_0 + 28 x_48_0 + 44 x_51_0 + 17 x_52_0 + 45 x_54_0 + 21 x_58_0 + 40 x_60_0 + 21 x_64_0 + 46 x_66_0 + 10 x_71_0 + 37 x_72_0 + 29 x_74_0 + 1 x_90_0 + 17 x_91_0 + 23 x_93_0 + 23 x_95_0 + 44 x_96_0 + 29 x_98_0 - 57 y_0 = 0
b1: 22 x_3_1 + 27 x_11_1 + 31 x_12_1 + 18 x_14_1 + 36 x_17_1 + 27 x_19_1 + 1 x_20_1 + 25 x_25_1 + 23 x_26_1 + 9 x_27_1 + 27 x_29_1 + 32 x_35_1 + 9 x_38_1 + 15 x_39_1 + 20 x_40_1 + 4 x_42_1 + 47 x_43_1 + 44 x_51_1 + 17 x_52_1 + 15 x_53_1 + 45 x_54_1 + 9 x_56_1 + 40 x_60_1 + 49 x_62_1 + 18 x_67_1 + 37 x_72_1 + 29 x_74_1 + 30 x_76_1 + 23 x_78_1 + 43 x_79_1 + 12 x_81_1 + 20 x_82_1 + 16 x_83_1 + 11 x_85_1 + 9 x_87_1 + 28 x_88_1 + 21 x_92_1 + 10 x_97_1 - 32 y_1 = 0
b2: 6 x_0_2 + 22 x_3_2 + 15 x_6_2 + 27 x_11_2 + 31 x_12_2 + 18 x_14_2 + 15 x_16_2 + 27 x_19_2 + 29 x_24_2 + 23 x_26_2 + 24 x_34_2 + 35 x_36_2 + 40 x_37_2 + 20 x_40_2 + 42 x_44_2 + 48 x_45_2 + 44 x_46_2 + 34 x_50_2 + 17 x_52_2 + 9 x_56_2 + 21 x_58_2 + 40 x_60_2 + 2 x_61_2 + 40 x_63_2 + 21 x_64_2 + 46 x_66_2 + 43 x_68_2 + 47 x_70_2 + 10 x_71_2 + 37 x_72_2 + 28 x_75_2 + 30 x_76_2 + 8 x_77_2 + 10 x_80_2 + 12 x_81_2 + 4 x_84_2 + 9 x_87_2 + 1 x_90_2 + 17 x_91_2 + 23 x_93_2 + 40 x_99_2 - 70 y_2 = 0
b3: 20 x_1_3 + 12 x_2_3 + 22 x_3_3 + 34 x_5_3 + 15 x_6_3 + 31 x_8_3 + 29 x_9_3 + 31 x_12_3 + 39 x_13_3 + 15 x_16_3 + 37 x_21_3 + 43 x_23_3 + 22 x_28_3 + 27 x_29_3 + 7 x_30_3 + 46 x_32_3 + 13 x_33_3 + 20 x_40_3 + 4 x_42_3 + 47 x_43_3 + 42 x_44_3 + 28 x_48_3 + 17 x_49_3 + 17 x_52_3 + 29 x_55_3 + 35 x_59_3 + 40 x_63_3 + 21 x_64_3 + 18 x_65_3 + 18 x_67_3 + 22 x_69_3 + 37 x_72_3 + 16 x_73_3 + 29 x_74_3 + 28 x_75_3 + 23 x_78_3 + 43 x_79_3 + 10 x_80_3 + 20 x_82_3 + 16 x_83_3 + 4 x_84_3 + 11 x_85_3 + 15 x_86_3 + 28 x_88_3 + 17 x_89_3 + 21 x_92_3 + 34 x_94_3 + 23 x_95_3 + 10 x_97_3 + 29 x_98_3 - 14 y_3 = 0
b4: 20 x_1_4 + 12 x_2_4 + 22 x_3_4 + 34 x_5_4 + 15 x_6_4 + 31 x_8_4 + 29 x_9_4 + 31 x_12_4 + 39 x_13_4 + 15 x_16_4 + 37 x_21_4 + 43 x_23_4 + 22 x_28_4 + 27 x_29_4 + 7 x_30_4 + 46 x_32_4 + 13 x_33_4 + 20 x_40_4 + 4 x_42_4 + 47 x_43_4 + 42 x_44_4 + 28 x_48_4 + 17 x_49_4 + 17 x_52_4 + 29 x_55_4 + 35 x_59_4 + 40 x_63_4 + 21 x_64_4 + 18 x_65_4 + 18 x_67_4 + 22 x_69_4 + 37 x_72_4 + 16 x_73_4 + 29 x_74_4 + 28 x_75_4 + 23 x_78_4 + 43 x_79_4 + 10 x_80_4 + 20 x_82_4 + 16 x_83_4 + 4 x_84_4 + 11 x_85_4 + 15 x_86_4 + 28 x_88_4 + 17 x_89_4 + 21 x_92_4 + 34 x_94_4 + 23 x_95_4 + 10 x_97_4 + 29 x_98_4 - 47 y_4 = 0
b5: 15 x_6_5 + 31 x_8_5 + 37 x_10_5 + 36 x_17_5 + 4 x_18_5 + 27 x_19_5 + 1 x_20_5 + 37 x_21_5 + 9 x_27_5 + 7 x_30_5 + 27 x_31_5 + 46 x_32_5 + 24 x_34_5 + 15 x_41_5 + 48 x_45_5 + 44 x_46_5 + 28 x_48_5 + 44 x_51_5 + 17 x_52_5 + 45 x_54_5 + 21 x_58_5 + 40 x_60_5 + 21 x_64_5 + 46 x_66_5 + 10 x_71_5 + 37 x_72_5 + 29 x_74_5 + 1 x_90_5 + 17 x_91_5 + 23 x_93_5 + 23 x_95_5 + 44 x_96_5 + 29 x_98_5 - 13 y_5 = 0
b6: 6 x_0_6 + 20 x_1_6 + 12 x_2_6 + 22 x_3_6 + 39 x_4_6 + 34 x_5_6 + 29 x_9_6 + 37 x_10_6 + 39 x_13_6 + 24 x_15_6 + 15 x_16_6 + 1 x_20_6 + 1 x_22_6 + 43 x_23_6 + 25 x_25_6 + 27 x_31_6 + 46 x_32_6 + 24 x_34_6 + 32 x_35_6 + 35 x_36_6 + 4 x_42_6 + 48 x_45_6 + 13 x_47_6 + 34 x_50_6 + 44 x_51_6 + 49 x_62_6 + 43 x_68_6 + 47 x_70_6 + 10 x_71_6 + 37 x_72_6 + 28 x_75_6 + 30 x_76_6 + 23 x_78_6 + 43 x_79_6 + 12 x_81_6 + 16 x_83_6 + 11 x_85_6 + 28 x_88_6 + 17 x_89_6 + 21 x_92_6 + 34 x_94_6 + 40 x_99_6 - 41 y_6 = 0
b7: 22 x_3_7 + 15 x_6_7 + 31 x_7_7 + 24 x_15_7 + 1 x_20_7 + 37 x_21_7 + 23 x_26_7 + 22 x_28_7 + 7 x_30_7 + 13 x_33_7 + 35 x_36_7 + 9 x_38_7 + 15 x_39_7 + 15 x_41_7 + 44 x_46_7 + 13 x_47_7 + 28 x_48_7 + 17 x_49_7 + 15 x_53_7 + 29 x_55_7 + 16 x_57_7 + 49 x_62_7 + 18 x_65_7 + 43 x_68_7 + 22 x_69_7 + 16 x_73_7 + 28 x_75_7 + 8 x_77_7 + 23 x_78_7 + 10 x_80_7 + 12 x_81_7 + 20 x_82_7 + 11 x_85_7 + 9 x_87_7 + 28 x_88_7 + 17 x_89_7 + 23 x_93_7 + 34 x_94_7 + 23 x_95_7 + 44 x_96_7 + 40 x_99_7 - 60 y_7 = 0
b8: 6 x_0_8 + 20 x_1_8 + 12 x_2_8 + 22 x_3_8 + 39 x_4_8 + 34 x_5_8 + 29 x_9_8 + 37 x_10_8 + 39 x_13_8 + 24 x_15_8 + 15 x_16_8 + 1 x_20_8 + 1 x_22_8 + 43 x_23_8 + 25 x_25_8 + 27 x_31_8 + 46 x_32_8 + 24 x_34_8 + 32 x_35_8 + 35 x_36_8 + 4 x_42_8 + 48 x_45_8 + 13 x_47_8 + 34 x_50_8 + 44 x_51_8 + 49 x_62_8 + 43 x_68_8 + 47 x_70_8 + 10 x_71_8 + 37 x_72_8 + 28 x_75_8 + 30 x_76_8 + 23 x_78_8 + 43 x_79_8 + 12 x_81_8 + 16 x_83_8 + 11 x_85_8 + 28 x_88_8 + 17 x_89_8 + 21 x_92_8 + 34 x_94_8 + 40 x_99_8 - 50 y_8 = 0
b9: 12 x_2_9 + 39 x_4_9 + 31 x_7_9 + 31 x_8_9 + 37 x_10_9 + 31 x_12_9 + 39 x_13_9 + 18 x_14_9 + 36 x_17_9 + 4 x_18_9 + 37 x_21_9 + 9 x_27_9 + 7 x_30_9 + 46 x_32_9 + 13 x_33_9 + 24 x_34_9 + 40 x_37_9 + 9 x_38_9 + 15 x_39_9 + 42 x_44_9 + 28 x_48_9 + 44 x_51_9 + 15 x_53_9 + 45 x_54_9 + 21 x_58_9 + 35 x_59_9 + 18 x_65_9 + 43 x_68_9 + 47 x_70_9 + 10 x_71_9 + 16 x_73_9 + 28 x_75_9 + 8 x_77_9 + 10 x_80_9 + 12 x_81_9 + 20 x_82_9 + 15 x_86_9 + 28 x_88_9 + 17 x_91_9 + 23 x_93_9 + 10 x_97_9 + 29 x_98_9 + 40 x_99_9 - 10 y_9 = 0




Binary

x_0_0 x_0_1 x_0_2 x_0_3 x_0_4 x_0_5 x_0_6 x_0_7 x_0_8 x_0_9 x_1_0 x_1_1 x_1_2 x_1_3 x_1_4 x_1_5 x_1_6 x_1_7 x_1_8 x_1_9 x_2_0 x_2_1 x_2_2 x_2_3 x_2_4 x_2_5 x_2_6 x_2_7 x_2_8 x_2_9 x_3_0 x_3_1 x_3_2 x_3_3 x_3_4 x_3_5 x_3_6 x_3_7 x_3_8 x_3_9 x_4_0 x_4_1 x_4_2 x_4_3 x_4_4 x_4_5 x_4_6 x_4_7 x_4_8 x_4_9 x_5_0 x_5_1 x_5_2 x_5_3 x_5_4 x_5_5 x_5_6 x_5_7 x_5_8 x_5_9 x_6_0 x_6_1 x_6_2 x_6_3 x_6_4 x_6_5 x_6_6 x_6_7 x_6_8 x_6_9 x_7_0 x_7_1 x_7_2 x_7_3 x_7_4 x_7_5 x_7_6 x_7_7 x_7_8 x_7_9 x_8_0 x_8_1 x_8_2 x_8_3 x_8_4 x_8_5 x_8_6 x_8_7 x_8_8 x_8_9 x_9_0 x_9_1 x_9_2 x_9_3 x_9_4 x_9_5 x_9_6 x_9_7 x_9_8 x_9_9 x_10_0 x_10_1 x_10_2 x_10_3 x_10_4 x_10_5 x_10_6 x_10_7 x_10_8 x_10_9 x_11_0 x_11_1 x_11_2 x_11_3 x_11_4 x_11_5 x_11_6 x_11_7 x_11_8 x_11_9 x_12_0 x_12_1 x_12_2 x_12_3 x_12_4 x_12_5 x_12_6 x_12_7 x_12_8 x_12_9 x_13_0 x_13_1 x_13_2 x_13_3 x_13_4 x_13_5 x_13_6 x_13_7 x_13_8 x_13_9 x_14_0 x_14_1 x_14_2 x_14_3 x_14_4 x_14_5 x_14_6 x_14_7 x_14_8 x_14_9 x_15_0 x_15_1 x_15_2 x_15_3 x_15_4 x_15_5 x_15_6 x_15_7 x_15_8 x_15_9 x_16_0 x_16_1 x_16_2 x_16_3 x_16_4 x_16_5 x_16_6 x_16_7 x_16_8 x_16_9 x_17_0 x_17_1 x_17_2 x_17_3 x_17_4 x_17_5 x_17_6 x_17_7 x_17_8 x_17_9 x_18_0 x_18_1 x_18_2 x_18_3 x_18_4 x_18_5 x_18_6 x_18_7 x_18_8 x_18_9 x_19_0 x_19_1 x_19_2 x_19_3 x_19_4 x_19_5 x_19_6 x_19_7 x_19_8 x_19_9 x_20_0 x_20_1 x_20_2 x_20_3 x_20_4 x_20_5 x_20_6 x_20_7 x_20_8 x_20_9 x_21_0 x_21_1 x_21_2 x_21_3 x_21_4 x_21_5 x_21_6 x_21_7 x_21_8 x_21_9 x_22_0 x_22_1 x_22_2 x_22_3 x_22_4 x_22_5 x_22_6 x_22_7 x_22_8 x_22_9 x_23_0 x_23_1 x_23_2 x_23_3 x_23_4 x_23_5 x_23_6 x_23_7 x_23_8 x_23_9 x_24_0 x_24_1 x_24_2 x_24_3 x_24_4 x_24_5 x_24_6 x_24_7 x_24_8 x_24_9 x_25_0 x_25_1 x_25_2 x_25_3 x_25_4 x_25_5 x_25_6 x_25_7 x_25_8 x_25_9 x_26_0 x_26_1 x_26_2 x_26_3 x_26_4 x_26_5 x_26_6 x_26_7 x_26_8 x_26_9 x_27_0 x_27_1 x_27_2 x_27_3 x_27_4 x_27_5 x_27_6 x_27_7 x_27_8 x_27_9 x_28_0 x_28_1 x_28_2 x_28_3 x_28_4 x_28_5 x_28_6 x_28_7 x_28_8 x_28_9 x_29_0 x_29_1 x_29_2 x_29_3 x_29_4 x_29_5 x_29_6 x_29_7 x_29_8 x_29_9 x_30_0 x_30_1 x_30_2 x_30_3 x_30_4 x_30_5 x_30_6 x_30_7 x_30_8 x_30_9 x_31_0 x_31_1 x_31_2 x_31_3 x_31_4 x_31_5 x_31_6 x_31_7 x_31_8 x_31_9 x_32_0 x_32_1 x_32_2 x_32_3 x_32_4 x_32_5 x_32_6 x_32_7 x_32_8 x_32_9 x_33_0 x_33_1 x_33_2 x_33_3 x_33_4 x_33_5 x_33_6 x_33_7 x_33_8 x_33_9 x_34_0 x_34_1 x_34_2 x_34_3 x_34_4 x_34_5 x_34_6 x_34_7 x_34_8 x_34_9 x_35_0 x_35_1 x_35_2 x_35_3 x_35_4 x_35_5 x_35_6 x_35_7 x_35_8 x_35_9 x_36_0 x_36_1 x_36_2 x_36_3 x_36_4 x_36_5 x_36_6 x_36_7 x_36_8 x_36_9 x_37_0 x_37_1 x_37_2 x_37_3 x_37_4 x_37_5 x_37_6 x_37_7 x_37_8 x_37_9 x_38_0 x_38_1 x_38_2 x_38_3 x_38_4 x_38_5 x_38_6 x_38_7 x_38_8 x_38_9 x_39_0 x_39_1 x_39_2 x_39_3 x_39_4 x_39_5 x_39_6 x_39_7 x_39_8 x_39_9 x_40_0 x_40_1 x_40_2 x_40_3 x_40_4 x_40_5 x_40_6 x_40_7 x_40_8 x_40_9 x_41_0 x_41_1 x_41_2 x_41_3 x_41_4 x_41_5 x_41_6 x_41_7 x_41_8 x_41_9 x_42_0 x_42_1 x_42_2 x_42_3 x_42_4 x_42_5 x_42_6 x_42_7 x_42_8 x_42_9 x_43_0 x_43_1 x_43_2 x_43_3 x_43_4 x_43_5 x_43_6 x_43_7 x_43_8 x_43_9 x_44_0 x_44_1 x_44_2 x_44_3 x_44_4 x_44_5 x_44_6 x_44_7 x_44_8 x_44_9 x_45_0 x_45_1 x_45_2 x_45_3 x_45_4 x_45_5 x_45_6 x_45_7 x_45_8 x_45_9 x_46_0 x_46_1 x_46_2 x_46_3 x_46_4 x_46_5 x_46_6 x_46_7 x_46_8 x_46_9 x_47_0 x_47_1 x_47_2 x_47_3 x_47_4 x_47_5 x_47_6 x_47_7 x_47_8 x_47_9 x_48_0 x_48_1 x_48_2 x_48_3 x_48_4 x_48_5 x_48_6 x_48_7 x_48_8 x_48_9 x_49_0 x_49_1 x_49_2 x_49_3 x_49_4 x_49_5 x_49_6 x_49_7 x_49_8 x_49_9 x_50_0 x_50_1 x_50_2 x_50_3 x_50_4 x_50_5 x_50_6 x_50_7 x_50_8 x_50_9 x_51_0 x_51_1 x_51_2 x_51_3 x_51_4 x_51_5 x_51_6 x_51_7 x_51_8 x_51_9 x_52_0 x_52_1 x_52_2 x_52_3 x_52_4 x_52_5 x_52_6 x_52_7 x_52_8 x_52_9 x_53_0 x_53_1 x_53_2 x_53_3 x_53_4 x_53_5 x_53_6 x_53_7 x_53_8 x_53_9 x_54_0 x_54_1 x_54_2 x_54_3 x_54_4 x_54_5 x_54_6 x_54_7 x_54_8 x_54_9 x_55_0 x_55_1 x_55_2 x_55_3 x_55_4 x_55_5 x_55_6 x_55_7 x_55_8 x_55_9 x_56_0 x_56_1 x_56_2 x_56_3 x_56_4 x_56_5 x_56_6 x_56_7 x_56_8 x_56_9 x_57_0 x_57_1 x_57_2 x_57_3 x_57_4 x_57_5 x_57_6 x_57_7 x_57_8 x_57_9 x_58_0 x_58_1 x_58_2 x_58_3 x_58_4 x_58_5 x_58_6 x_58_7 x_58_8 x_58_9 x_59_0 x_59_1 x_59_2 x_59_3 x_59_4 x_59_5 x_59_6 x_59_7 x_59_8 x_59_9 x_60_0 x_60_1 x_60_2 x_60_3 x_60_4 x_60_5 x_60_6 x_60_7 x_60_8 x_60_9 x_61_0 x_61_1 x_61_2 x_61_3 x_61_4 x_61_5 x_61_6 x_61_7 x_61_8 x_61_9 x_62_0 x_62_1 x_62_2 x_62_3 x_62_4 x_62_5 x_62_6 x_62_7 x_62_8 x_62_9 x_63_0 x_63_1 x_63_2 x_63_3 x_63_4 x_63_5 x_63_6 x_63_7 x_63_8 x_63_9 x_64_0 x_64_1 x_64_2 x_64_3 x_64_4 x_64_5 x_64_6 x_64_7 x_64_8 x_64_9 x_65_0 x_65_1 x_65_2 x_65_3 x_65_4 x_65_5 x_65_6 x_65_7 x_65_8 x_65_9 x_66_0 x_66_1 x_66_2 x_66_3 x_66_4 x_66_5 x_66_6 x_66_7 x_66_8 x_66_9 x_67_0 x_67_1 x_67_2 x_67_3 x_67_4 x_67_5 x_67_6 x_67_7 x_67_8 x_67_9 x_68_0 x_68_1 x_68_2 x_68_3 x_68_4 x_68_5 x_68_6 x_68_7 x_68_8 x_68_9 x_69_0 x_69_1 x_69_2 x_69_3 x_69_4 x_69_5 x_69_6 x_69_7 x_69_8 x_69_9 x_70_0 x_70_1 x_70_2 x_70_3 x_70_4 x_70_5 x_70_6 x_70_7 x_70_8 x_70_9 x_71_0 x_71_1 x_71_2 x_71_3 x_71_4 x_71_5 x_71_6 x_71_7 x_71_8 x_71_9 x_72_0 x_72_1 x_72_2 x_72_3 x_72_4 x_72_5 x_72_6 x_72_7 x_72_8 x_72_9 x_73_0 x_73_1 x_73_2 x_73_3 x_73_4 x_73_5 x_73_6 x_73_7 x_73_8 x_73_9 x_74_0 x_74_1 x_74_2 x_74_3 x_74_4 x_74_5 x_74_6 x_74_7 x_74_8 x_74_9 x_75_0 x_75_1 x_75_2 x_75_3 x_75_4 x_75_5 x_75_6 x_75_7 x_75_8 x_75_9 x_76_0 x_76_1 x_76_2 x_76_3 x_76_4 x_76_5 x_76_6 x_76_7 x_76_8 x_76_9 x_77_0 x_77_1 x_77_2 x_77_3 x_77_4 x_77_5 x_77_6 x_77_7 x_77_8 x_77_9 x_78_0 x_78_1 x_78_2 x_78_3 x_78_4 x_78_5 x_78_6 x_78_7 x_78_8 x_78_9 x_79_0 x_79_1 x_79_2 x_79_3 x_79_4 x_79_5 x_79_6 x_79_7 x_79_8 x_79_9 x_80_0 x_80_1 x_80_2 x_80_3 x_80_4 x_80_5 x_80_6 x_80_7 x_80_8 x_80_9 x_81_0 x_81_1 x_81_2 x_81_3 x_81_4 x_81_5 x_81_6 x_81_7 x_81_8 x_81_9 x_82_0 x_82_1 x_82_2 x_82_3 x_82_4 x_82_5 x_82_6 x_82_7 x_82_8 x_82_9 x_83_0 x_83_1 x_83_2 x_83_3 x_83_4 x_83_5 x_83_6 x_83_7 x_83_8 x_83_9 x_84_0 x_84_1 x_84_2 x_84_3 x_84_4 x_84_5 x_84_6 x_84_7 x_84_8 x_84_9 x_85_0 x_85_1 x_85_2 x_85_3 x_85_4 x_85_5 x_85_6 x_85_7 x_85_8 x_85_9 x_86_0 x_86_1 x_86_2 x_86_3 x_86_4 x_86_5 x_86_6 x_86_7 x_86_8 x_86_9 x_87_0 x_87_1 x_87_2 x_87_3 x_87_4 x_87_5 x_87_6 x_87_7 x_87_8 x_87_9 x_88_0 x_88_1 x_88_2 x_88_3 x_88_4 x_88_5 x_88_6 x_88_7 x_88_8 x_88_9 x_89_0 x_89_1 x_89_2 x_89_3 x_89_4 x_89_5 x_89_6 x_89_7 x_89_8 x_89_9 x_90_0 x_90_1 x_90_2 x_90_3 x_90_4 x_90_5 x_90_6 x_90_7 x_90_8 x_90_9 x_91_0 x_91_1 x_91_2 x_91_3 x_91_4 x_91_5 x_91_6 x_91_7 x_91_8 x_91_9 x_92_0 x_92_1 x_92_2 x_92_3 x_92_4 x_92_5 x_92_6 x_92_7 x_92_8 x_92_9 x_93_0 x_93_1 x_93_2 x_93_3 x_93_4 x_93_5 x_93_6 x_93_7 x_93_8 x_93_9 x_94_0 x_94_1 x_94_2 x_94_3 x_94_4 x_94_5 x_94_6 x_94_7 x_94_8 x_94_9 x_95_0 x_95_1 x_95_2 x_95_3 x_95_4 x_95_5 x_95_6 x_95_7 x_95_8 x_95_9 x_96_0 x_96_1 x_96_2 x_96_3 x_96_4 x_96_5 x_96_6 x_96_7 x_96_8 x_96_9 x_97_0 x_97_1 x_97_2 x_97_3 x_97_4 x_97_5 x_97_6 x_97_7 x_97_8 x_97_9 x_98_0 x_98_1 x_98_2 x_98_3 x_98_4 x_98_5 x_98_6 x_98_7 x_98_8 x_98_9 x_99_0 x_99_1 x_99_2 x_99_3 x_99_4 x_99_5 x_99_6 x_99_7 x_99_8 x_99_9 y_0 y_1 y_2 y_3 y_4 y_5 y_6 y_7 y_8 y_9

 


End
